
mapping with 16 threads...

 0:00:01.08 Mapping INCOV076-BL.extracted.fq.gz to NUC reference...

 0:06:53.60 Generating binary hit matrix.
0:06:53.63 Loading /labs/khatrilab/solomonb/covid/isb/optitype/INCOV076-BL_1.bam started. Number of HLA reads loaded (updated every thousand):
1K...2K...3K...4K...5K...6K...7K...8K...9K...10K...11K...12K...13K...14K...15K...16K...17K...18K...19K...20K...21K...22K...23K...24K...25K...26K...27K...28K...29K...30K...31K...32K...33K...34K...35K...36K...37K...38K...39K...40K...41K...42K...43K...44K...45K...46K...47K...48K...49K...50K...51K...52K...53K...54K...55K...56K...57K...58K...59K...60K...61K...62K...63K...64K...65K...66K...67K...68K...69K...70K...71K...72K...73K...74K...75K...76K...77K...78K...79K...80K...81K...82K...83K...84K...85K...86K...87K...88K...89K...90K...91K...92K...93K...94K...95K...96K...97K...98K...99K...100K...101K...102K...103K...104K...105K...106K...107K...108K...109K...110K...111K...112K...113K...114K...115K...116K...117K...118K...119K...120K...121K...122K...123K...124K...125K...126K...127K...128K...129K...130K...131K...
 0:07:49.83 131287 reads loaded. Creating dataframe...
0:23:30.02 Dataframes created. Shape: 131287 x 7339, hits: 47490945 (47495421), sparsity: 1 in 20.29

 0:24:21.78 temporary pruning of identical rows and columns

 0:24:23.99 Size of mtx with unique rows and columns: (1927, 1462)
0:24:23.99 determining minimal set of non-overshadowed alleles

 0:24:40.37 Keeping only the minimal number of required alleles (586,)

 0:24:40.54 Creating compact model...

starting ilp solver with 1 threads...

 0:25:46.38 Initializing OptiType model...
GLPSOL: GLPK LP/MIP Solver, v4.57
Parameter(s) specified in the command line:
 --write /tmp/tmpjYsgAc.glpk.raw --wglp /tmp/tmpOvB5GC.glpk.glp --cpxlp /tmp/tmpyBb1S3.pyomo.lp
Reading problem data from '/tmp/tmpyBb1S3.pyomo.lp'...
/tmp/tmpyBb1S3.pyomo.lp:79175: warning: lower bound of variable 'x5331' redefined
/tmp/tmpyBb1S3.pyomo.lp:79175: warning: upper bound of variable 'x5331' redefined
5330 rows, 3248 columns, 57269 non-zeros
1916 integer variables, all of which are binary
81091 lines were read
Writing problem data to '/tmp/tmpOvB5GC.glpk.glp'...
75172 lines were written
GLPK Integer Optimizer, v4.57
5330 rows, 3248 columns, 57269 non-zeros
1916 integer variables, all of which are binary
Preprocessing...
1184 hidden covering inequaliti(es) were detected
5325 rows, 3246 columns, 57260 non-zeros
1915 integer variables, all of which are binary
Scaling...
 A: min|aij| =  1.000e+00  max|aij| =  4.000e+00  ratio =  4.000e+00
Problem data seem to be well scaled
Constructing initial basis...
Size of triangular part is 5325
Solving LP relaxation...
GLPK Simplex Optimizer, v4.57
5325 rows, 3246 columns, 57260 non-zeros
      0: obj =  -0.000000000e+00 inf =   3.000e+00 (3)
      3: obj =  -0.000000000e+00 inf =   0.000e+00 (0)
*   500: obj =   1.032427950e+05 inf =   5.944e-15 (1163) 1
*  1000: obj =   1.105225810e+05 inf =   3.612e-15 (882)
*  1500: obj =   1.107234700e+05 inf =   3.612e-15 (692)
*  2000: obj =   1.110712920e+05 inf =   4.056e-15 (387)
*  2388: obj =   1.113510930e+05 inf =   2.998e-15 (0)
OPTIMAL LP SOLUTION FOUND
Integer optimization begins...
+  2388: mip =     not found yet <=              +inf        (1; 0)
+  2388: >>>>>   1.113510930e+05 <=   1.113510930e+05   0.0% (1; 0)
+  2388: mip =   1.113510930e+05 <=     tree is empty   0.0% (0; 1)
INTEGER OPTIMAL SOLUTION FOUND
Time used:   0.5 secs
Memory used: 12.6 Mb (13258604 bytes)
Writing MIP solution to '/tmp/tmpjYsgAc.glpk.raw'...
8580 lines were written

 0:25:53.13 Result dataframe has been constructed...
